
Gurobi 11.0.0 (win64) logging started Sat Jun 15 09:56:59 2024

Set parameter LogFile to value "./GurobiLog/stage_3_iter_13.log"
Gurobi Optimizer version 11.0.0 build v11.0.0rc2 (win64 - Windows 10.0 (18363.2))

CPU model: Intel(R) Core(TM) i7-8700 CPU @ 3.20GHz, instruction set [SSE2|AVX|AVX2]
Thread count: 6 physical cores, 12 logical processors, using up to 1 threads

Optimize a model with 1065 rows, 10910 columns and 18470 nonzeros
Coefficient statistics:
  Matrix range     [1e+00, 4e+01]
  Objective range  [2e+00, 2e+05]
  Bounds range     [8e-01, 1e+04]
  RHS range        [1e+00, 3e+04]
LP warm-start: use basis
Iteration    Objective       Primal Inf.    Dual Inf.      Time
       0   -1.8788156e+04   1.085254e+04   0.000000e+00      0s
     327    1.3207449e+04   0.000000e+00   0.000000e+00      0s

Solved in 327 iterations and 0.01 seconds (0.01 work units)
Optimal objective  1.320744884e+04

Gurobi 11.0.0 (win64) logging started Sat Jun 15 10:55:09 2024

Set parameter LogFile to value "./GurobiLog/stage_3_iter_13.log"
Gurobi Optimizer version 11.0.0 build v11.0.0rc2 (win64 - Windows 10.0 (18363.2))

CPU model: Intel(R) Core(TM) i7-8700 CPU @ 3.20GHz, instruction set [SSE2|AVX|AVX2]
Thread count: 6 physical cores, 12 logical processors, using up to 1 threads

Optimize a model with 1065 rows, 10910 columns and 18470 nonzeros
Coefficient statistics:
  Matrix range     [1e+00, 4e+01]
  Objective range  [2e+00, 2e+05]
  Bounds range     [6e-02, 6e+03]
  RHS range        [1e+00, 3e+04]
LP warm-start: use basis
Iteration    Objective       Primal Inf.    Dual Inf.      Time
       0   -3.9478735e+04   1.456052e+04   0.000000e+00      0s
     276    1.1245150e+04   0.000000e+00   0.000000e+00      0s

Solved in 276 iterations and 0.01 seconds (0.01 work units)
Optimal objective  1.124515006e+04
